Optimize a model with 311 rows, 1089 columns and 3320 nonzeros
Model has 90 quadratic objective terms
Model has 100 quadratic constraints
Coefficient statistics:
  Matrix range    [1e+00, 9e+02]
  Objective range [0e+00, 0e+00]
  Bounds range    [1e+00, 8e+00]
  RHS range       [1e+00, 3e+03]
Presolve removed 57 rows and 314 columns
Presolve time: 0.01s
Presolved: 2788 rows, 2037 columns, 9707 nonzeros
Variable types: 1334 continuous, 703 integer (685 binary)

Root relaxation: objective 7.300000e+01, 1218 iterations, 0.04 seconds

    Nodes    |    Current Node    |     Objective Bounds      |     Work
 Expl Unexpl |  Obj  Depth IntInf | Incumbent    BestBd   Gap | It/Node Time

     0     0   73.00000    0   26          -   73.00000      -     -    0s
H    0     0                    1471.0000000   73.00000  95.0%     -    0s
     0     0   73.00000    0   45 1471.00000   73.00000  95.0%     -    0s
     0     0   73.00000    0   44 1471.00000   73.00000  95.0%     -    0s
     0     0   73.00000    0   55 1471.00000   73.00000  95.0%     -    0s
     0     0   73.00000    0   59 1471.00000   73.00000  95.0%     -    0s
     0     0   73.00000    0   23 1471.00000   73.00000  95.0%     -    0s
H    0     0                    1162.0000000   73.00000  93.7%     -    0s
     0     0   73.00000    0   52 1162.00000   73.00000  93.7%     -    0s
     0     0  108.76996    0   29 1162.00000  108.76996  90.6%     -    0s
     0     0  108.81766    0   50 1162.00000  108.81766  90.6%     -    0s
     0     0  109.50000    0  101 1162.00000  109.50000  90.6%     -    0s
     0     0  109.50000    0   98 1162.00000  109.50000  90.6%     -    0s
     0     0  109.50000    0  126 1162.00000  109.50000  90.6%     -    0s
     0     0  109.50000    0  124 1162.00000  109.50000  90.6%     -    0s
     0     0  109.50000    0   31 1162.00000  109.50000  90.6%     -    1s
H    0     0                     913.0000000  109.50000  88.0%     -    1s
     0     0  109.50000    0   40  913.00000  109.50000  88.0%     -    1s
     0     0  109.50000    0   25  913.00000  109.50000  88.0%     -    1s
     0     0  109.50000    0   52  913.00000  109.50000  88.0%     -    1s
     0     0  109.50000    0   30  913.00000  109.50000  88.0%     -    1s
     0     0  109.50000    0   21  913.00000  109.50000  88.0%     -    1s
     0     2  109.50000    0   21  913.00000  109.50000  88.0%     -    2s
H  771   471                     758.9166667  116.50000  84.6%   117    3s
H  848   482                     465.3333333  116.50000  75.0%   114    4s
  1023   562  130.16667   13  104  465.33333  127.66845  72.6%   112    5s
  1060   587  156.52152   22  253  465.33333  156.52152  66.4%   108   10s
  1064   592  185.43673   12  207  465.33333  156.79092  66.3%   122   17s
  1068   594  205.38896   14  175  465.33333  156.82187  66.3%   125   20s
  1194   657  311.93970   21  170  465.33333  158.62777  65.9%   155   25s
  1726   779  353.50101   38   42  465.33333  169.27251  63.6%   187   30s
H 1742   677                     313.1666667  169.27251  45.9%   185   30s
H 1778   548                     267.1666667  169.71381  36.5%   187   30s
  2016   515  200.96468   17  193  267.16667  180.35805  32.5%   193   35s
  2417   475  216.30585   27  174  267.16667  189.38735  29.1%   197   40s
  3134   449     cutoff   25       267.16667  199.35930  25.4%   202   45s
* 3863   353              25     262.1666667  217.41877  17.1%   202   49s
  4038   279     cutoff   20       262.16667  223.79262  14.6%   202   51s

Cutting planes:
  Gomory: 12
  Cover: 5
  Implied bound: 137
  MIR: 86
  Flow cover: 210
  GUB cover: 4
  Zero half: 7

Explored 4641 nodes (926497 simplex iterations) in 53.89 seconds
Thread count was 8 (of 8 available processors)

Optimal solution found (tolerance 1.00e-04)
Best objective 2.621666666666e+02, best bound 2.621666666666e+02, gap 0.0%

Solution:
0 9 5 8 6 4 
0 0 0 0 0 0 

Cost: 262.167
Lower Bound: 262.167
